NAME: tsp30-10
TYPE: TSP
DIMENSION: 30
EDGE_WEIGHT_TYPE: EUC_2D
NODE_COORD_SECTION
0 13 33
1 32 7
2 80 29
3 41 98
4 90 79
5 12 15
6 51 52
7 90 66
8 99 78
9 21 39
10 58 8
11 69 57
12 27 82
13 83 6
14 61 61
15 95 58
16 53 78
17 81 77
18 12 48
19 40 28
20 50 17
21 28 28
22 60 5
23 31 77
24 95 55
25 39 9
26 5 88
27 28 19
28 28 15
29 23 27
EOF